<?xml version = "1.0" standalone="yes"?>
<!-- This file has been generated by DOcplex version 2.23.222  -->
<CPLEXSolution version="1.0">
 <header
   problemName="CVRP"
   objectiveValue="15529.6"
  />
 <variables>
  <variable name="x_0_3" index="2" value="1.00000"/>
  <variable name="x_0_6" index="5" value="1.00000"/>
  <variable name="x_0_8" index="7" value="1.00000"/>
  <variable name="x_0_10" index="9" value="1.00000"/>
  <variable name="x_0_11" index="10" value="1.00000"/>
  <variable name="x_0_12" index="11" value="1.00000"/>
  <variable name="x_0_13" index="12" value="1.00000"/>
  <variable name="x_0_14" index="13" value="1.00000"/>
  <variable name="x_0_15" index="14" value="1.00000"/>
  <variable name="x_0_17" index="16" value="1.00000"/>
  <variable name="x_1_0" index="18" value="1.00000"/>
  <variable name="x_2_0" index="36" value="1.00000"/>
  <variable name="x_3_9" index="62" value="1.00000"/>
  <variable name="x_4_16" index="87" value="1.00000"/>
  <variable name="x_5_0" index="90" value="1.00000"/>
  <variable name="x_6_2" index="110" value="1.00000"/>
  <variable name="x_7_0" index="126" value="1.00000"/>
  <variable name="x_8_1" index="145" value="1.00000"/>
  <variable name="x_9_0" index="162" value="1.00000"/>
  <variable name="x_10_5" index="185" value="1.00000"/>
  <variable name="x_11_0" index="198" value="1.00000"/>
  <variable name="x_12_7" index="223" value="1.00000"/>
  <variable name="x_13_0" index="234" value="1.00000"/>
  <variable name="x_14_0" index="252" value="1.00000"/>
  <variable name="x_15_0" index="270" value="1.00000"/>
  <variable name="x_16_0" index="288" value="1.00000"/>
  <variable name="x_17_18" index="323" value="1.00000"/>
  <variable name="x_18_4" index="328" value="1.00000"/>
  <variable name="u_1" index="342" value="37.00000"/>
  <variable name="u_2" index="343" value="37.00000"/>
  <variable name="u_3" index="344" value="6.00000"/>
  <variable name="u_4" index="345" value="22.00000"/>
  <variable name="u_5" index="346" value="38.00000"/>
  <variable name="u_6" index="347" value="2.00000"/>
  <variable name="u_7" index="348" value="35.00000"/>
  <variable name="u_8" index="349" value="14.00000"/>
  <variable name="u_9" index="350" value="35.00000"/>
  <variable name="u_10" index="351" value="37.00000"/>
  <variable name="u_11" index="352" value="39.00000"/>
  <variable name="u_12" index="353" value="12.00000"/>
  <variable name="u_13" index="354" value="29.00000"/>
  <variable name="u_14" index="355" value="35.00000"/>
  <variable name="u_15" index="356" value="39.00000"/>
  <variable name="u_16" index="357" value="39.00000"/>
  <variable name="u_17" index="358" value="15.00000"/>
  <variable name="u_18" index="359" value="17.00000"/>
 </variables>
</CPLEXSolution>
